(set-info :smt-lib-version 2.6)
(set-logic UFLIA)
(set-info :source |Benchmarks from the paper: "Extending Sledgehammer with SMT Solvers" by Jasmin Blanchette, Sascha Bohme, and Lawrence C. Paulson, CADE 2011.  Translated to SMT2 by Andrew Reynolds and Morgan Deters.|)
(set-info :category "industrial")
(set-info :status unknown)
(declare-sort S1 0)
(declare-sort S2 0)
(declare-sort S3 0)
(declare-sort S4 0)
(declare-sort S5 0)
(declare-sort S6 0)
(declare-sort S7 0)
(declare-sort S8 0)
(declare-sort S9 0)
(declare-sort S10 0)
(declare-sort S11 0)
(declare-sort S12 0)
(declare-sort S13 0)
(declare-sort S14 0)
(declare-sort S15 0)
(declare-sort S16 0)
(declare-sort S17 0)
(declare-sort S18 0)
(declare-sort S19 0)
(declare-sort S20 0)
(declare-sort S21 0)
(declare-sort S22 0)
(declare-fun f1 () S1)
(declare-fun f2 () S1)
(declare-fun f3 (S3 S2) S1)
(declare-fun f4 (S4 S3) S3)
(declare-fun f5 (S2) S4)
(declare-fun f6 (S2 S3) S1)
(declare-fun f7 (S6 S5) S1)
(declare-fun f8 (S7 S6) S6)
(declare-fun f9 (S5) S7)
(declare-fun f10 (S5 S6) S1)
(declare-fun f11 (S2) S4)
(declare-fun f12 (S5) S7)
(declare-fun f13 () S3)
(declare-fun f14 () S6)
(declare-fun f15 (S6 S6) S1)
(declare-fun f16 () S6)
(declare-fun f17 (S8 S9) Int)
(declare-fun f18 () S8)
(declare-fun f19 () S9)
(declare-fun f20 (S10 S6) S9)
(declare-fun f21 () S10)
(declare-fun f22 (S11 Int) S9)
(declare-fun f23 () S11)
(declare-fun f24 (S12) S1)
(declare-fun f25 (S6 S6) S1)
(declare-fun f26 (S5) S7)
(declare-fun f27 (S13 S12) S5)
(declare-fun f28 () S13)
(declare-fun f29 () S6)
(declare-fun f30 (S3) S1)
(declare-fun f31 () S3)
(declare-fun f32 (S14 S3) S6)
(declare-fun f33 (S15) S14)
(declare-fun f34 () S15)
(declare-fun f35 (S15 S2) S5)
(declare-fun f36 (S6) S1)
(declare-fun f37 (S17 S6) S3)
(declare-fun f38 (S16) S17)
(declare-fun f39 (S18) S4)
(declare-fun f40 (S19) S7)
(declare-fun f41 (S3 S3) S1)
(declare-fun f42 () S3)
(declare-fun f43 (S2) S4)
(declare-fun f44 (S20 S21) S12)
(declare-fun f45 () S20)
(declare-fun f46 (S2) S21)
(declare-fun f47 (S22 S3) S9)
(declare-fun f48 () S22)
(declare-fun f49 (S16 S5) S2)
(declare-fun f50 (S18 S2) S2)
(declare-fun f51 (S19 S5) S5)
(declare-fun f52 (S6) S6)
(declare-fun f53 (S3) S3)
(assert (not (= f1 f2)))
(assert (forall ((?v0 S2) (?v1 S3) (?v2 S2)) (= (= (f3 (f4 (f5 ?v0) ?v1) ?v2) f1) (or (= ?v2 ?v0) (= (f6 ?v2 ?v1) f1)))))
(assert (forall ((?v0 S5) (?v1 S6) (?v2 S5)) (= (= (f7 (f8 (f9 ?v0) ?v1) ?v2) f1) (or (= ?v2 ?v0) (= (f10 ?v2 ?v1) f1)))))
(assert (forall ((?v0 S2) (?v1 S3) (?v2 S2)) (= (= (f3 (f4 (f11 ?v0) ?v1) ?v2) f1) (=> (not (= ?v2 ?v0)) (= (f3 ?v1 ?v2) f1)))))
(assert (forall ((?v0 S5) (?v1 S6) (?v2 S5)) (= (= (f7 (f8 (f12 ?v0) ?v1) ?v2) f1) (=> (not (= ?v2 ?v0)) (= (f7 ?v1 ?v2) f1)))))
(assert (forall ((?v0 S2)) (= (= (f3 f13 ?v0) f1) false)))
(assert (forall ((?v0 S5)) (= (= (f7 f14 ?v0) f1) false)))
(assert (not (forall ((?v0 S6)) (let ((?v_0 (f17 f18 (f20 f21 f16))) (?v_1 (f17 f18 f19))) (=> (= (f15 ?v0 f16) f1) (=> (<= ?v_1 ?v_0) (=> (= (f20 f21 ?v0) (f22 f23 (- ?v_0 ?v_1))) (forall ((?v1 S12)) (=> (= (f24 ?v1) f1) (= (f25 ?v0 (f8 (f26 (f27 f28 ?v1)) f29)) f1))))))))))
(assert (= (f30 f31) f1))
(assert (= f16 (f32 (f33 f34) f31)))
(assert (forall ((?v0 S6) (?v1 S6)) (=> (= (f15 ?v0 ?v1) f1) (= (f25 ?v1 ?v0) f1))))
(assert (forall ((?v0 S12) (?v1 S6)) (=> (= (f24 ?v0) f1) (=> (forall ((?v2 S2)) (=> (= (f6 ?v2 f31) f1) (= (f25 ?v1 (f8 (f26 (f35 f34 ?v2)) f29)) f1))) (= (f25 ?v1 (f8 (f26 (f27 f28 ?v0)) f29)) f1)))))
(assert (forall ((?v0 S3) (?v1 S15)) (=> (= (f30 ?v0) f1) (= (f36 (f32 (f33 ?v1) ?v0)) f1))))
(assert (forall ((?v0 S6) (?v1 S16)) (=> (= (f36 ?v0) f1) (= (f30 (f37 (f38 ?v1) ?v0)) f1))))
(assert (forall ((?v0 S3) (?v1 S18)) (=> (= (f30 ?v0) f1) (= (f30 (f4 (f39 ?v1) ?v0)) f1))))
(assert (forall ((?v0 S6) (?v1 S19)) (=> (= (f36 ?v0) f1) (= (f36 (f8 (f40 ?v1) ?v0)) f1))))
(assert (forall ((?v0 S6)) (= (f15 f29 ?v0) f1)))
(assert (forall ((?v0 S3)) (= (f41 f42 ?v0) f1)))
(assert (forall ((?v0 S6) (?v1 S5)) (=> (= (f36 ?v0) f1) (= (f36 (f8 (f26 ?v1) ?v0)) f1))))
(assert (forall ((?v0 S3) (?v1 S2)) (=> (= (f30 ?v0) f1) (= (f30 (f4 (f43 ?v1) ?v0)) f1))))
(assert (= (f30 f42) f1))
(assert (= (f36 f29) f1))
(assert (forall ((?v0 S2) (?v1 S6)) (let ((?v_0 (f26 (f35 f34 ?v0)))) (=> (= (f25 (f8 ?v_0 ?v1) (f8 (f26 (f27 f28 (f44 f45 (f46 ?v0)))) f29)) f1) (= (f25 ?v1 (f8 ?v_0 f29)) f1)))))
(assert (forall ((?v0 S3) (?v1 S15)) (=> (= (f30 ?v0) f1) (<= (f17 f18 (f20 f21 (f32 (f33 ?v1) ?v0))) (f17 f18 (f47 f48 ?v0))))))
(assert (forall ((?v0 S6) (?v1 S16)) (=> (= (f36 ?v0) f1) (<= (f17 f18 (f47 f48 (f37 (f38 ?v1) ?v0))) (f17 f18 (f20 f21 ?v0))))))
(assert (forall ((?v0 S6) (?v1 S19)) (=> (= (f36 ?v0) f1) (<= (f17 f18 (f20 f21 (f8 (f40 ?v1) ?v0))) (f17 f18 (f20 f21 ?v0))))))
(assert (forall ((?v0 S3) (?v1 S18)) (=> (= (f30 ?v0) f1) (<= (f17 f18 (f47 f48 (f4 (f39 ?v1) ?v0))) (f17 f18 (f47 f48 ?v0))))))
(assert (forall ((?v0 S6) (?v1 S6)) (=> (= (f36 ?v0) f1) (=> (= (f15 ?v1 ?v0) f1) (<= (f17 f18 (f20 f21 ?v1)) (f17 f18 (f20 f21 ?v0)))))))
(assert (forall ((?v0 S3) (?v1 S3)) (=> (= (f30 ?v0) f1) (=> (= (f41 ?v1 ?v0) f1) (<= (f17 f18 (f47 f48 ?v1)) (f17 f18 (f47 f48 ?v0)))))))
(assert (forall ((?v0 S6) (?v1 S6)) (=> (= (f36 ?v0) f1) (=> (= (f15 ?v1 ?v0) f1) (=> (<= (f17 f18 (f20 f21 ?v0)) (f17 f18 (f20 f21 ?v1))) (= ?v1 ?v0))))))
(assert (forall ((?v0 S3) (?v1 S3)) (=> (= (f30 ?v0) f1) (=> (= (f41 ?v1 ?v0) f1) (=> (<= (f17 f18 (f47 f48 ?v0)) (f17 f18 (f47 f48 ?v1))) (= ?v1 ?v0))))))
(assert (forall ((?v0 S6) (?v1 S5)) (=> (= (f36 ?v0) f1) (<= (f17 f18 (f20 f21 ?v0)) (f17 f18 (f20 f21 (f8 (f26 ?v1) ?v0)))))))
(assert (forall ((?v0 S3) (?v1 S2)) (=> (= (f30 ?v0) f1) (<= (f17 f18 (f47 f48 ?v0)) (f17 f18 (f47 f48 (f4 (f43 ?v1) ?v0)))))))
(assert (forall ((?v0 S6) (?v1 S5)) (let ((?v_0 (f20 f21 ?v0))) (=> (= (f36 ?v0) f1) (= (f20 f21 (f8 (f26 ?v1) ?v0)) (ite (= (f10 ?v1 ?v0) f1) ?v_0 (f22 f23 (+ (f17 f18 ?v_0) 1))))))))
(assert (forall ((?v0 S3) (?v1 S2)) (let ((?v_0 (f47 f48 ?v0))) (=> (= (f30 ?v0) f1) (= (f47 f48 (f4 (f43 ?v1) ?v0)) (ite (= (f6 ?v1 ?v0) f1) ?v_0 (f22 f23 (+ (f17 f18 ?v_0) 1))))))))
(assert (forall ((?v0 S6) (?v1 S5)) (=> (= (f36 ?v0) f1) (=> (not (= (f10 ?v1 ?v0) f1)) (= (f20 f21 (f8 (f26 ?v1) ?v0)) (f22 f23 (+ (f17 f18 (f20 f21 ?v0)) 1)))))))
(assert (forall ((?v0 S3) (?v1 S2)) (=> (= (f30 ?v0) f1) (=> (not (= (f6 ?v1 ?v0) f1)) (= (f47 f48 (f4 (f43 ?v1) ?v0)) (f22 f23 (+ (f17 f18 (f47 f48 ?v0)) 1)))))))
(assert (forall ((?v0 S6) (?v1 S5)) (=> (= (f36 ?v0) f1) (=> (not (= (f10 ?v1 ?v0) f1)) (= (f20 f21 (f8 (f26 ?v1) ?v0)) (f22 f23 (+ 1 (f17 f18 (f20 f21 ?v0)))))))))
(assert (forall ((?v0 S3) (?v1 S2)) (=> (= (f30 ?v0) f1) (=> (not (= (f6 ?v1 ?v0) f1)) (= (f47 f48 (f4 (f43 ?v1) ?v0)) (f22 f23 (+ 1 (f17 f18 (f47 f48 ?v0)))))))))
(assert (forall ((?v0 S2)) (=> (= (f6 ?v0 f42) f1) false)))
(assert (forall ((?v0 S5)) (=> (= (f10 ?v0 f29) f1) false)))
(assert (forall ((?v0 S5) (?v1 S6) (?v2 S5)) (=> (=> (not (= (f10 ?v0 ?v1) f1)) (= ?v0 ?v2)) (= (f10 ?v0 (f8 (f26 ?v2) ?v1)) f1))))
(assert (forall ((?v0 S2) (?v1 S3) (?v2 S2)) (=> (=> (not (= (f6 ?v0 ?v1) f1)) (= ?v0 ?v2)) (= (f6 ?v0 (f4 (f43 ?v2) ?v1)) f1))))
(assert (forall ((?v0 S5) (?v1 S5) (?v2 S6)) (=> (= (f10 ?v0 (f8 (f26 ?v1) ?v2)) f1) (=> (=> (= ?v0 ?v1) false) (=> (=> (= (f10 ?v0 ?v2) f1) false) false)))))
(assert (forall ((?v0 S2) (?v1 S2) (?v2 S3)) (=> (= (f6 ?v0 (f4 (f43 ?v1) ?v2)) f1) (=> (=> (= ?v0 ?v1) false) (=> (=> (= (f6 ?v0 ?v2) f1) false) false)))))
(assert (forall ((?v0 S6) (?v1 S6)) (=> (= (f15 ?v0 ?v1) f1) (=> (= (f15 ?v1 ?v0) f1) (= ?v0 ?v1)))))
(assert (forall ((?v0 S3) (?v1 S3)) (=> (= (f41 ?v0 ?v1) f1) (=> (= (f41 ?v1 ?v0) f1) (= ?v0 ?v1)))))
(assert (forall ((?v0 S3) (?v1 S3) (?v2 S2)) (=> (= (f41 ?v0 ?v1) f1) (=> (= (f6 ?v2 ?v0) f1) (= (f6 ?v2 ?v1) f1)))))
(assert (forall ((?v0 S6) (?v1 S6) (?v2 S5)) (=> (= (f15 ?v0 ?v1) f1) (=> (= (f10 ?v2 ?v0) f1) (= (f10 ?v2 ?v1) f1)))))
(assert (forall ((?v0 S5) (?v1 S15) (?v2 S2) (?v3 S3)) (=> (= ?v0 (f35 ?v1 ?v2)) (=> (= (f6 ?v2 ?v3) f1) (= (f10 ?v0 (f32 (f33 ?v1) ?v3)) f1)))))
(assert (forall ((?v0 S2) (?v1 S16) (?v2 S5) (?v3 S6)) (=> (= ?v0 (f49 ?v1 ?v2)) (=> (= (f10 ?v2 ?v3) f1) (= (f6 ?v0 (f37 (f38 ?v1) ?v3)) f1)))))
(assert (forall ((?v0 S2) (?v1 S18) (?v2 S2) (?v3 S3)) (=> (= ?v0 (f50 ?v1 ?v2)) (=> (= (f6 ?v2 ?v3) f1) (= (f6 ?v0 (f4 (f39 ?v1) ?v3)) f1)))))
(assert (forall ((?v0 S5) (?v1 S19) (?v2 S5) (?v3 S6)) (=> (= ?v0 (f51 ?v1 ?v2)) (=> (= (f10 ?v2 ?v3) f1) (= (f10 ?v0 (f8 (f40 ?v1) ?v3)) f1)))))
(assert (forall ((?v0 S2)) (=> (= (f6 ?v0 f31) f1) (= (f24 (f44 f45 (f46 ?v0))) f1))))
(assert (forall ((?v0 S3) (?v1 S2)) (=> (= ?v0 f42) (not (= (f6 ?v1 ?v0) f1)))))
(assert (forall ((?v0 S6) (?v1 S5)) (=> (= ?v0 f29) (not (= (f10 ?v1 ?v0) f1)))))
(assert (forall ((?v0 S6)) (= (= (f52 ?v0) f29) (forall ((?v1 S5)) (not (= (f7 ?v0 ?v1) f1))))))
(assert (forall ((?v0 S3)) (= (= (f53 ?v0) f42) (forall ((?v1 S2)) (not (= (f3 ?v0 ?v1) f1))))))
(assert (forall ((?v0 S2)) (= (= (f6 ?v0 f42) f1) false)))
(assert (forall ((?v0 S5)) (= (= (f10 ?v0 f29) f1) false)))
(assert (forall ((?v0 S6)) (= (= f29 (f52 ?v0)) (forall ((?v1 S5)) (not (= (f7 ?v0 ?v1) f1))))))
(assert (forall ((?v0 S3)) (= (= f42 (f53 ?v0)) (forall ((?v1 S2)) (not (= (f3 ?v0 ?v1) f1))))))
(assert (forall ((?v0 S3)) (= (forall ((?v1 S2)) (=> (= (f6 ?v1 f42) f1) (= (f3 ?v0 ?v1) f1))) true)))
(assert (forall ((?v0 S6)) (= (forall ((?v1 S5)) (=> (= (f10 ?v1 f29) f1) (= (f7 ?v0 ?v1) f1))) true)))
(assert (forall ((?v0 S3)) (= (exists ((?v1 S2)) (and (= (f6 ?v1 f42) f1) (= (f3 ?v0 ?v1) f1))) false)))
(assert (forall ((?v0 S6)) (= (exists ((?v1 S5)) (and (= (f10 ?v1 f29) f1) (= (f7 ?v0 ?v1) f1))) false)))
(assert (forall ((?v0 S3)) (= (exists ((?v1 S2)) (= (f6 ?v1 ?v0) f1)) (not (= ?v0 f42)))))
(assert (forall ((?v0 S6)) (= (exists ((?v1 S5)) (= (f10 ?v1 ?v0) f1)) (not (= ?v0 f29)))))
(assert (forall ((?v0 S3)) (= (forall ((?v1 S2)) (not (= (f6 ?v1 ?v0) f1))) (= ?v0 f42))))
(assert (forall ((?v0 S6)) (= (forall ((?v1 S5)) (not (= (f10 ?v1 ?v0) f1))) (= ?v0 f29))))
(assert (= f29 (f52 f14)))
(assert (= f42 (f53 f13)))
(assert (forall ((?v0 S5) (?v1 S6)) (=> (= (f10 ?v0 ?v1) f1) (= (f8 (f26 ?v0) ?v1) ?v1))))
(assert (forall ((?v0 S2) (?v1 S3)) (=> (= (f6 ?v0 ?v1) f1) (= (f4 (f43 ?v0) ?v1) ?v1))))
(assert (forall ((?v0 S5) (?v1 S6) (?v2 S5)) (=> (= (f10 ?v0 ?v1) f1) (= (f10 ?v0 (f8 (f26 ?v2) ?v1)) f1))))
(assert (forall ((?v0 S2) (?v1 S3) (?v2 S2)) (=> (= (f6 ?v0 ?v1) f1) (= (f6 ?v0 (f4 (f43 ?v2) ?v1)) f1))))
(assert (forall ((?v0 S5) (?v1 S6) (?v2 S6)) (let ((?v_0 (f26 ?v0))) (=> (not (= (f10 ?v0 ?v1) f1)) (=> (not (= (f10 ?v0 ?v2) f1)) (= (= (f8 ?v_0 ?v1) (f8 ?v_0 ?v2)) (= ?v1 ?v2)))))))
(assert (forall ((?v0 S2) (?v1 S3) (?v2 S3)) (let ((?v_0 (f43 ?v0))) (=> (not (= (f6 ?v0 ?v1) f1)) (=> (not (= (f6 ?v0 ?v2) f1)) (= (= (f4 ?v_0 ?v1) (f4 ?v_0 ?v2)) (= ?v1 ?v2)))))))
(assert (forall ((?v0 S5) (?v1 S6) (?v2 S5)) (= (= (f7 (f8 (f26 ?v0) ?v1) ?v2) f1) (or (= ?v0 ?v2) (= (f7 ?v1 ?v2) f1)))))
(assert (forall ((?v0 S2) (?v1 S3) (?v2 S2)) (= (= (f3 (f4 (f43 ?v0) ?v1) ?v2) f1) (or (= ?v0 ?v2) (= (f3 ?v1 ?v2) f1)))))
(assert (forall ((?v0 S5) (?v1 S5) (?v2 S6)) (= (= (f10 ?v0 (f8 (f26 ?v1) ?v2)) f1) (or (= ?v0 ?v1) (= (f10 ?v0 ?v2) f1)))))
(assert (forall ((?v0 S2) (?v1 S2) (?v2 S3)) (= (= (f6 ?v0 (f4 (f43 ?v1) ?v2)) f1) (or (= ?v0 ?v1) (= (f6 ?v0 ?v2) f1)))))
(assert (forall ((?v0 S5) (?v1 S5) (?v2 S6)) (let ((?v_1 (f26 ?v0)) (?v_0 (f26 ?v1))) (= (f8 ?v_1 (f8 ?v_0 ?v2)) (f8 ?v_0 (f8 ?v_1 ?v2))))))
(assert (forall ((?v0 S2) (?v1 S2) (?v2 S3)) (let ((?v_1 (f43 ?v0)) (?v_0 (f43 ?v1))) (= (f4 ?v_1 (f4 ?v_0 ?v2)) (f4 ?v_0 (f4 ?v_1 ?v2))))))
(assert (forall ((?v0 S5) (?v1 S6)) (let ((?v_0 (f26 ?v0))) (let ((?v_1 (f8 ?v_0 ?v1))) (= (f8 ?v_0 ?v_1) ?v_1)))))
(assert (forall ((?v0 S2) (?v1 S3)) (let ((?v_0 (f43 ?v0))) (let ((?v_1 (f4 ?v_0 ?v1))) (= (f4 ?v_0 ?v_1) ?v_1)))))
(assert (forall ((?v0 S5) (?v1 S6)) (= (f8 (f26 ?v0) (f52 ?v1)) (f52 (f8 (f12 ?v0) ?v1)))))
(assert (forall ((?v0 S2) (?v1 S3)) (= (f4 (f43 ?v0) (f53 ?v1)) (f53 (f4 (f11 ?v0) ?v1)))))
(assert (forall ((?v0 S5) (?v1 S6)) (= (f8 (f26 ?v0) ?v1) (f52 (f8 (f9 ?v0) ?v1)))))
(assert (forall ((?v0 S2) (?v1 S3)) (= (f4 (f43 ?v0) ?v1) (f53 (f4 (f5 ?v0) ?v1)))))
(assert (forall ((?v0 S5) (?v1 S6)) (= (f10 ?v0 (f8 (f26 ?v0) ?v1)) f1)))
(assert (forall ((?v0 S2) (?v1 S3)) (= (f6 ?v0 (f4 (f43 ?v0) ?v1)) f1)))
(assert (forall ((?v0 S6) (?v1 S6)) (=> (= ?v0 ?v1) (=> (=> (= (f15 ?v0 ?v1) f1) (=> (= (f15 ?v1 ?v0) f1) false)) false))))
(assert (forall ((?v0 S3) (?v1 S3)) (=> (= ?v0 ?v1) (=> (=> (= (f41 ?v0 ?v1) f1) (=> (= (f41 ?v1 ?v0) f1) false)) false))))
(assert (forall ((?v0 S6) (?v1 S6) (?v2 S6)) (=> (= (f15 ?v0 ?v1) f1) (=> (= (f15 ?v1 ?v2) f1) (= (f15 ?v0 ?v2) f1)))))
(assert (forall ((?v0 S3) (?v1 S3) (?v2 S3)) (=> (= (f41 ?v0 ?v1) f1) (=> (= (f41 ?v1 ?v2) f1) (= (f41 ?v0 ?v2) f1)))))
(assert (forall ((?v0 S3) (?v1 S3) (?v2 S2)) (=> (= (f41 ?v0 ?v1) f1) (=> (= (f6 ?v2 ?v0) f1) (= (f6 ?v2 ?v1) f1)))))
(assert (forall ((?v0 S6) (?v1 S6) (?v2 S5)) (=> (= (f15 ?v0 ?v1) f1) (=> (= (f10 ?v2 ?v0) f1) (= (f10 ?v2 ?v1) f1)))))
(assert (forall ((?v0 S2) (?v1 S3) (?v2 S3)) (=> (= (f6 ?v0 ?v1) f1) (=> (= (f41 ?v1 ?v2) f1) (= (f6 ?v0 ?v2) f1)))))
(assert (forall ((?v0 S5) (?v1 S6) (?v2 S6)) (=> (= (f10 ?v0 ?v1) f1) (=> (= (f15 ?v1 ?v2) f1) (= (f10 ?v0 ?v2) f1)))))
(assert (forall ((?v0 S3) (?v1 S3) (?v2 S2)) (=> (= (f41 ?v0 ?v1) f1) (=> (= (f6 ?v2 ?v0) f1) (= (f6 ?v2 ?v1) f1)))))
(assert (forall ((?v0 S6) (?v1 S6) (?v2 S5)) (=> (= (f15 ?v0 ?v1) f1) (=> (= (f10 ?v2 ?v0) f1) (= (f10 ?v2 ?v1) f1)))))
(assert (forall ((?v0 S6) (?v1 S6)) (=> (= ?v0 ?v1) (= (f15 ?v1 ?v0) f1))))
(assert (forall ((?v0 S3) (?v1 S3)) (=> (= ?v0 ?v1) (= (f41 ?v1 ?v0) f1))))
(assert (forall ((?v0 S6) (?v1 S6)) (=> (= ?v0 ?v1) (= (f15 ?v0 ?v1) f1))))
(assert (forall ((?v0 S3) (?v1 S3)) (=> (= ?v0 ?v1) (= (f41 ?v0 ?v1) f1))))
(assert (forall ((?v0 S6) (?v1 S6)) (= (= ?v0 ?v1) (and (= (f15 ?v0 ?v1) f1) (= (f15 ?v1 ?v0) f1)))))
(assert (forall ((?v0 S3) (?v1 S3)) (= (= ?v0 ?v1) (and (= (f41 ?v0 ?v1) f1) (= (f41 ?v1 ?v0) f1)))))
(assert (forall ((?v0 S6)) (= (f15 ?v0 ?v0) f1)))
(assert (forall ((?v0 S3)) (= (f41 ?v0 ?v0) f1)))
(assert (forall ((?v0 S2) (?v1 S3) (?v2 S5) (?v3 S15)) (=> (= (f6 ?v0 ?v1) f1) (=> (= ?v2 (f35 ?v3 ?v0)) (= (f10 ?v2 (f32 (f33 ?v3) ?v1)) f1)))))
(assert (forall ((?v0 S5) (?v1 S6) (?v2 S2) (?v3 S16)) (=> (= (f10 ?v0 ?v1) f1) (=> (= ?v2 (f49 ?v3 ?v0)) (= (f6 ?v2 (f37 (f38 ?v3) ?v1)) f1)))))
(assert (forall ((?v0 S2) (?v1 S3) (?v2 S2) (?v3 S18)) (=> (= (f6 ?v0 ?v1) f1) (=> (= ?v2 (f50 ?v3 ?v0)) (= (f6 ?v2 (f4 (f39 ?v3) ?v1)) f1)))))
(assert (forall ((?v0 S5) (?v1 S6) (?v2 S5) (?v3 S19)) (=> (= (f10 ?v0 ?v1) f1) (=> (= ?v2 (f51 ?v3 ?v0)) (= (f10 ?v2 (f8 (f40 ?v3) ?v1)) f1)))))
(assert (forall ((?v0 S2) (?v1 S3) (?v2 S15)) (=> (= (f6 ?v0 ?v1) f1) (= (f10 (f35 ?v2 ?v0) (f32 (f33 ?v2) ?v1)) f1))))
(assert (forall ((?v0 S5) (?v1 S6) (?v2 S16)) (=> (= (f10 ?v0 ?v1) f1) (= (f6 (f49 ?v2 ?v0) (f37 (f38 ?v2) ?v1)) f1))))
(assert (forall ((?v0 S2) (?v1 S3) (?v2 S18)) (=> (= (f6 ?v0 ?v1) f1) (= (f6 (f50 ?v2 ?v0) (f4 (f39 ?v2) ?v1)) f1))))
(assert (forall ((?v0 S5) (?v1 S6) (?v2 S19)) (=> (= (f10 ?v0 ?v1) f1) (= (f10 (f51 ?v2 ?v0) (f8 (f40 ?v2) ?v1)) f1))))
(assert (forall ((?v0 S5) (?v1 S15) (?v2 S3)) (= (= (f10 ?v0 (f32 (f33 ?v1) ?v2)) f1) (exists ((?v3 S2)) (and (= (f6 ?v3 ?v2) f1) (= ?v0 (f35 ?v1 ?v3)))))))
(assert (forall ((?v0 S2) (?v1 S16) (?v2 S6)) (= (= (f6 ?v0 (f37 (f38 ?v1) ?v2)) f1) (exists ((?v3 S5)) (and (= (f10 ?v3 ?v2) f1) (= ?v0 (f49 ?v1 ?v3)))))))
(assert (forall ((?v0 S2) (?v1 S18) (?v2 S3)) (= (= (f6 ?v0 (f4 (f39 ?v1) ?v2)) f1) (exists ((?v3 S2)) (and (= (f6 ?v3 ?v2) f1) (= ?v0 (f50 ?v1 ?v3)))))))
(assert (forall ((?v0 S5) (?v1 S19) (?v2 S6)) (= (= (f10 ?v0 (f8 (f40 ?v1) ?v2)) f1) (exists ((?v3 S5)) (and (= (f10 ?v3 ?v2) f1) (= ?v0 (f51 ?v1 ?v3)))))))
(assert (forall ((?v0 S5) (?v1 S5)) (=> (= (f8 (f26 ?v0) f29) (f8 (f26 ?v1) f29)) (= ?v0 ?v1))))
(assert (forall ((?v0 S2) (?v1 S2)) (=> (= (f4 (f43 ?v0) f42) (f4 (f43 ?v1) f42)) (= ?v0 ?v1))))
(assert (forall ((?v0 S5) (?v1 S5)) (=> (= (f10 ?v0 (f8 (f26 ?v1) f29)) f1) (=> (=> (= ?v0 ?v1) false) false))))
(assert (forall ((?v0 S2) (?v1 S2)) (=> (= (f6 ?v0 (f4 (f43 ?v1) f42)) f1) (=> (=> (= ?v0 ?v1) false) false))))
(assert (forall ((?v0 S5) (?v1 S5) (?v2 S5) (?v3 S5)) (= (= (f8 (f26 ?v0) (f8 (f26 ?v1) f29)) (f8 (f26 ?v2) (f8 (f26 ?v3) f29))) (or (and (= ?v0 ?v2) (= ?v1 ?v3)) (and (= ?v0 ?v3) (= ?v1 ?v2))))))
(assert (forall ((?v0 S2) (?v1 S2) (?v2 S2) (?v3 S2)) (= (= (f4 (f43 ?v0) (f4 (f43 ?v1) f42)) (f4 (f43 ?v2) (f4 (f43 ?v3) f42))) (or (and (= ?v0 ?v2) (= ?v1 ?v3)) (and (= ?v0 ?v3) (= ?v1 ?v2))))))
(assert (forall ((?v0 S5) (?v1 S5)) (= (= (f10 ?v0 (f8 (f26 ?v1) f29)) f1) (= ?v0 ?v1))))
(assert (forall ((?v0 S2) (?v1 S2)) (= (= (f6 ?v0 (f4 (f43 ?v1) f42)) f1) (= ?v0 ?v1))))
(assert (forall ((?v0 S5) (?v1 S6)) (not (= (f8 (f26 ?v0) ?v1) f29))))
(assert (forall ((?v0 S2) (?v1 S3)) (not (= (f4 (f43 ?v0) ?v1) f42))))
(assert (forall ((?v0 S5) (?v1 S6)) (not (= f29 (f8 (f26 ?v0) ?v1)))))
(assert (forall ((?v0 S2) (?v1 S3)) (not (= f42 (f4 (f43 ?v0) ?v1)))))
(assert (forall ((?v0 S5) (?v1 S6)) (= (= (f36 (f8 (f26 ?v0) ?v1)) f1) (= (f36 ?v1) f1))))
(assert (forall ((?v0 S2) (?v1 S3)) (= (= (f30 (f4 (f43 ?v0) ?v1)) f1) (= (f30 ?v1) f1))))
(assert (forall ((?v0 S6)) (= (= (f15 ?v0 f29) f1) (= ?v0 f29))))
(assert (forall ((?v0 S3)) (= (= (f41 ?v0 f42) f1) (= ?v0 f42))))
(assert (forall ((?v0 S3) (?v1 S3)) (=> (= (f41 ?v0 ?v1) f1) (=> (= (f30 ?v1) f1) (= (f30 ?v0) f1)))))
(assert (forall ((?v0 S6) (?v1 S6)) (=> (= (f15 ?v0 ?v1) f1) (=> (= (f36 ?v1) f1) (= (f36 ?v0) f1)))))
(assert (forall ((?v0 S9)) (= (f22 f23 (f17 f18 ?v0)) ?v0)))
(assert (forall ((?v0 Int)) (=> (<= 0 ?v0) (= (f17 f18 (f22 f23 ?v0)) ?v0))))
(assert (forall ((?v0 Int)) (=> (< ?v0 0) (= (f17 f18 (f22 f23 ?v0)) 0))))
(check-sat)
(exit)
